50
24404

704 892
747 896
301 128
973 255
117 541
173 664
645 246
409 773
425 235
457 967
533 372
538 529
882 477
9 192
927 994
639 429
621 446
866 898
851 901
609 521
852 702
907 627
358 624
59 642
301 265
873 653
231 754
603 891
398 620
527 603
122 400
596 46
154 166
738 619
788 150
367 988
141 702
659 845
741 547
61 459
895 573
400 867
177 29
763 956
652 743
651 563
821 368
865 562
205 969
514 622
